peakDumbCharging = 22200; 
Machine = anon_enum(16); 
machineSpeed = [3700,3700,3700,3700,3700,3700,3700,3700,3700,3700,3700,3700,3700,3700,3700,3700]; 
machineLoad = [3700,3700,3700,3700,3700,3700,3700,3700,3700,3700,3700,3700,3700,3700,3700,3700]; 
Car = anon_enum(35); 
demandCar = [240,7040,27080,12200,11160,8280,6200,14400,8840,2040,13200,5600,2680,12720,9120,10360,4360,3640,11480,4680,3160,4160,2320,28160,10440,1960,13280,14840,34600,4040,19400,34240,840,32120,5600]; 
arrivalCar = [76,74,73,73,72,71,71,69,69,69,65,64,62,60,60,60,58,58,56,55,54,54,52,50,50,50,49,43,40,39,37,36,32,29,29]; 
departureCar = [77,77,82,77,76,76,74,75,73,71,70,66,64,65,63,66,62,60,61,59,56,56,54,60,55,52,53,48,59,43,45,66,33,40,32]; 
